NAME : rc208.1.6155075.tour
COMMENT : Length = 6155075
COMMENT : Found by LKH [Keld Helsgaun] Tue May  2 05:50:43 2017
TYPE : TOUR
DIMENSION : 28
TOUR_SECTION
1
15
16
9
6
4
3
5
7
19
14
22
28
18
24
12
20
25
2
8
10
11
23
13
17
27
21
26
-1
EOF
